proyfinal/src/viki/013/experimentInOfficeAgust.take6.output/aaf5a8fc-edf8-4e1c-b858-6ae1827b95cb.als.dat
{'cnf.clauses': '118081',
 'cnf.totvars': '69608',
 'conflict literals': '17',
 'conflicts': '10',
 'decisions': '1511',
 'memused.mb': '16.71',
 'outcome': 'UNSAT',
 'propagations': '22710',
 'restarts': '1',
 'solver.msecs': 34,
 'task.msecs': 89}
