proyfinal/src/viki/013/experimentInOfficeAgust.take6.output/aaf5a8fc-edf8-4e1c-b858-6ae1827b95cb.als.out
Reading from standard input... Use '--help' for help.
============================[ Problem Statistics ]=============================
|                                                                             |
|  Number of variables:         69608                                         |
|  Number of clauses:          118081                                         |
|  Parse time:                   0.03 s                                       |
|                                                                             |
============================[ Search Statistics ]==============================
| Conflicts |          ORIGINAL         |          LEARNT          | Progress |
|           |    Vars  Clauses Literals |    Limit  Clauses Lit/Cl |          |
===============================================================================
===============================================================================
restarts              : 1
conflicts             : 10             (291 /sec)
decisions             : 1511           (0.00 % random) (43986 /sec)
propagations          : 22710          (661097 /sec)
conflict literals     : 17             (0.00 % deleted)
Memory used           : 16.71 MB
CPU time              : 0.034352 s

UNSATISFIABLE
